evaluation/v1.12.0/mas76-seed/mas76-02.mps.log
Running HiGHS 1.12.0 (git hash: n/a): Copyright (c) 2025 HiGHS under MIT licence terms
Set option solver to "simplex"
Set option parallel to "off"
Set option time_limit to 1200
Set option random_seed to 2
Set option log_file to "HiGHS.log"
Set option mip_rel_gap to 0
MIP mas76 has 12 rows; 151 cols; 1640 nonzeros; 150 integer variables (150 binary)
Coefficient ranges:
  Matrix  [1e+00, 1e+04]
  Cost    [1e-05, 1e+00]
  Bound   [1e+00, 1e+12]
  RHS     [2e+01, 2e+05]
WARNING: Problem has some excessively small costs
WARNING: Problem has some excessively large column bounds
WARNING:    Consider scaling the    bounds by 1e-6, or setting the user_bound_scale option to -20
Presolving model
12 rows, 150 cols, 1639 nonzeros  0s
12 rows, 148 cols, 1615 nonzeros  0s
Presolve reductions: rows 12(-0); columns 148(-3); nonzeros 1615(-25) 

Solving MIP model with:
   12 rows
   148 cols (145 binary, 2 integer, 0 implied int., 1 continuous, 0 domain fixed)
   1615 nonzeros

Src: B => Branching; C => Central rounding; F => Feasibility pump; H => Heuristic;
     I => Shifting; J => Feasibility jump; L => Sub-MIP; P => Empty MIP; R => Randomized rounding;
     S => Solve LP; T => Evaluate node; U => Unbounded; X => User solution; Y => HiGHS solution;
     Z => ZI Round; l => Trivial lower; p => Trivial point; u => Trivial upper; z => Trivial zero

        Nodes      |    B&B Tree     |            Objective Bounds              |  Dynamic Constraints |       Work      
Src  Proc. InQueue |  Leaves   Expl. | BestBound       BestSol              Gap |   Cuts   InLp Confl. | LpIters     Time

 J       0       0         0   0.00%   -inf            81131.017757       Large        0      0      0         0     0.0s
 R       0       0         0   0.00%   38893.903641    50637.257959      23.19%        0      0      0        67     0.0s
 C       0       0         0   0.00%   38972.341952    49230.1417        20.84%      209      5      0        97     0.0s
 L       0       0         0   0.00%   39029.63315     40697.054142       4.10%     1014     22      0       181     0.2s

42.2% inactive integer columns, restarting
Model after restart has 12 rows, 86 cols (85 bin., 0 int., 0 impl., 1 cont., 0 dom.fix.), and 878 nonzeros

         0       0         0   0.00%   39030.251963    40697.054142       4.10%       11      0      0      1371     0.4s
         0       0         0   0.00%   39030.251963    40697.054142       4.10%       11     11      3      1396     0.4s
 L       0       0         0   0.00%   39057.486304    40005.054142       2.37%     1097     27      3      1514     0.6s

18.8% inactive integer columns, restarting
Model after restart has 12 rows, 70 cols (69 bin., 0 int., 0 impl., 1 cont., 0 dom.fix.), and 687 nonzeros

         0       0         0   0.00%   39057.688884    40005.054142       2.37%       17      0      0      2966     0.8s
         0       0         0   0.00%   39057.688884    40005.054142       2.37%       17     17      1      3012     0.8s
 L       0       0         0   0.00%   39081.522448    40005.054142       2.31%     1214     37      1      3147     1.0s

Restarting search from the root node
Model after restart has 12 rows, 69 cols (68 bin., 0 int., 0 impl., 1 cont., 0 dom.fix.), and 675 nonzeros

      1005       0         0   0.00%   39098.270675    40005.054142       2.27%       20      0      0     20253     2.0s
      1005       0         0   0.00%   39098.270675    40005.054142       2.27%       20      4      2     20266     2.0s

Restarting search from the root node
Model after restart has 12 rows, 65 cols (64 bin., 0 int., 0 impl., 1 cont., 0 dom.fix.), and 628 nonzeros

      3134       0         0   0.00%   39098.270675    40005.054142       2.27%       16      0      0     38290     3.9s
      3134       0         0   0.00%   39098.270675    40005.054142       2.27%       16      1      2     38291     3.9s
 L    3134       0         0   0.00%   39098.270675    40005.054142       2.27%     1742     32      2     39794     4.5s

Restarting search from the root node
Model after restart has 12 rows, 65 cols (64 bin., 0 int., 0 impl., 1 cont., 0 dom.fix.), and 628 nonzeros

      6566       0         0   0.00%   39098.270675    40005.054142       2.27%       11      0      0     61326     5.4s
      6566       0         0   0.00%   39098.270675    40005.054142       2.27%       11      3      2     61337     5.4s
     22137    1100      7179  26.75%   39130.360835    40005.054142       2.19%     1235     17   9795    159493    10.4s
     36528    1887     13933  47.58%   39188.636763    40005.054142       2.04%     1668     14   9908    251314    15.4s
     48324    2401     19537  58.89%   39220.900361    40005.054142       1.96%     1359     10   9935    330972    20.4s

        Nodes      |    B&B Tree     |            Objective Bounds              |  Dynamic Constraints |       Work      
Src  Proc. InQueue |  Leaves   Expl. | BestBound       BestSol              Gap |   Cuts   InLp Confl. | LpIters     Time

     59014    2726     24693  67.45%   39256.340899    40005.054142       1.87%     1318      8   9871    405446    25.4s
     70077    3044     30019  73.35%   39286.317606    40005.054142       1.80%     1140     19   9992    482019    30.4s
     81814    3301     35730  81.92%   39329.14237     40005.054142       1.69%     1299      8   9997    560535    35.4s
     93253    3446     41345  87.42%   39377.126323    40005.054142       1.57%     1195     11   9947    638868    40.4s
    103871    3404     46641  92.32%   39446.93699     40005.054142       1.40%     1281      8   9929    713128    45.4s
    111565    3051     50649  95.75%   39555.564163    40005.054142       1.12%     1229     14   6755    774015    50.4s
    116670    2453     53488  97.06%   39649.686506    40005.054142       0.89%     1251      9   3555    823494    55.4s
    121073    1341     56239  98.86%   39778.932313    40005.054142       0.57%     1231      9   1278    872181    60.4s
    123008       0     57878 100.00%   40005.054142    40005.054142       0.00%     1188      4   1118    898124    62.7s

Solving report
  Model             mas76
  Status            Optimal
  Primal bound      40005.054142
  Dual bound        40005.054142
  Gap               0%
  P-D integral      1.07978471807
  Solution status   feasible
                    40005.054142 (objective)
                    0 (bound viol.)
                    3.59098920385e-12 (int. viol.)
                    0 (row viol.)
  Timing            62.67
  Max sub-MIP depth 5
  Nodes             123008
  Repair LPs        0
  LP iterations     898124
                    9119 (strong br.)
                    63036 (separation)
                    44947 (heuristics)
Model name          : mas76
Model status        : Optimal
Simplex   iterations: 898124
IPM       iterations: -1
Crossover iterations: -1
PDLP      iterations: -1
QP ASM    iterations: -1
Objective value     :  4.0005054142e+04
HiGHS run time      :         62.67
